NAME : X-n148-k46
COMMENT : "Generated by Uchoa, Pecin, Pessoa, Poggi, Subramanian, and Vidal (2013)"
TYPE : CVRP
DIMENSION : 148
EDGE_WEIGHT_TYPE : EUC_2D
EDGE_WEIGHT_FORMAT : 
CAPACITY : 18
DISTANCE : 1.79769e+308
SERVICE_TIME : 0
NODE_COORD_SECTION
1 707 633
2 405 122
3 811 419
4 11 667
5 336 612
6 366 50
7 98 836
8 414 996
9 243 713
10 100 232
11 891 946
12 132 204
13 25 642
14 994 18
15 636 897
16 214 651
17 108 619
18 882 399
19 863 607
20 409 585
21 247 882
22 553 507
23 677 258
24 673 644
25 25 182
26 251 111
27 263 799
28 660 359
29 351 288
30 172 127
31 382 441
32 231 650
33 966 485
34 964 107
35 876 164
36 949 328
37 936 70
38 229 744
39 161 214
40 581 594
41 154 860
42 23 374
43 736 600
44 594 542
45 846 684
46 355 471
47 675 597
48 663 653
49 61 889
50 685 150
51 129 248
52 161 301
53 180 836
54 427 670
55 833 860
56 669 251
57 411 403
58 450 926
59 591 505
60 468 157
61 288 484
62 574 955
63 795 521
64 41 65
65 175 486
66 74 436
67 907 13
68 579 912
69 765 835
70 176 189
71 972 351
72 470 22
73 577 469
74 561 672
75 110 670
76 811 614
77 460 344
78 862 486
79 22 369
80 898 295
81 89 934
82 89 973
83 896 544
84 503 364
85 765 469
86 832 504
87 702 482
88 481 321
89 827 627
90 541 599
91 111 694
92 891 231
93 884 324
94 555 436
95 186 502
96 442 319
97 823 255
98 367 339
99 572 872
100 715 620
101 134 794
102 85 912
103 191 561
104 79 911
105 924 508
106 132 871
107 962 682
108 783 515
109 170 677
110 847 462
111 840 535
112 732 383
113 904 368
114 980 376
115 281 669
116 84 809
117 114 715
118 83 648
119 800 540
120 45 944
121 84 965
122 465 407
123 779 427
124 854 305
125 518 500
126 216 721
127 597 643
128 847 501
129 859 298
130 954 764
131 339 814
132 142 552
133 400 366
134 21 341
135 802 487
136 67 772
137 897 552
138 847 538
139 189 530
140 930 232
141 472 396
142 92 325
143 877 475
144 451 370
145 1 416
146 712 100
147 869 270
148 100 342
PICKUP_AND_DELIVERY_SECTION
1 0 0 0 0 0 0
2 0 0 0 0 0 10
3 0 0 0 0 0 4
4 0 0 0 0 0 7
5 0 0 0 0 4 0
6 0 0 0 0 0 8
7 0 0 0 0 0 1
8 0 0 0 0 0 4
9 0 0 0 0 1 0
10 0 0 0 0 0 5
11 0 0 0 0 0 5
12 0 0 0 0 0 1
13 0 0 0 0 4 0
14 0 0 0 0 0 4
15 0 0 0 0 0 4
16 0 0 0 0 0 2
17 0 0 0 0 5 0
18 0 0 0 0 0 3
19 0 0 0 0 0 10
20 0 0 0 0 0 1
21 0 0 0 0 2 0
22 0 0 0 0 0 9
23 0 0 0 0 0 5
24 0 0 0 0 0 5
25 0 0 0 0 2 0
26 0 0 0 0 0 1
27 0 0 0 0 0 7
28 0 0 0 0 0 10
29 0 0 0 0 5 0
30 0 0 0 0 0 10
31 0 0 0 0 0 10
32 0 0 0 0 0 2
33 0 0 0 0 9 0
34 0 0 0 0 0 1
35 0 0 0 0 0 10
36 0 0 0 0 0 9
37 0 0 0 0 2 0
38 0 0 0 0 0 3
39 0 0 0 0 0 4
40 0 0 0 0 0 4
41 0 0 0 0 9 0
42 0 0 0 0 0 10
43 0 0 0 0 0 5
44 0 0 0 0 0 4
45 0 0 0 0 10 0
46 0 0 0 0 0 1
47 0 0 0 0 0 5
48 0 0 0 0 0 8
49 0 0 0 0 5 0
50 0 0 0 0 0 1
51 0 0 0 0 0 6
52 0 0 0 0 0 10
53 0 0 0 0 1 0
54 0 0 0 0 0 6
55 0 0 0 0 0 4
56 0 0 0 0 0 3
57 0 0 0 0 7 0
58 0 0 0 0 0 2
59 0 0 0 0 0 8
60 0 0 0 0 0 6
61 0 0 0 0 4 0
62 0 0 0 0 0 4
63 0 0 0 0 0 2
64 0 0 0 0 0 3
65 0 0 0 0 5 0
66 0 0 0 0 0 6
67 0 0 0 0 0 4
68 0 0 0 0 0 8
69 0 0 0 0 2 0
70 0 0 0 0 0 3
71 0 0 0 0 0 3
72 0 0 0 0 0 5
73 0 0 0 0 6 0
74 0 0 0 0 0 10
75 0 0 0 0 0 8
76 0 0 0 0 0 8
77 0 0 0 0 4 0
78 0 0 0 0 0 6
79 0 0 0 0 0 5
80 0 0 0 0 0 1
81 0 0 0 0 5 0
82 0 0 0 0 0 9
83 0 0 0 0 0 2
84 0 0 0 0 0 8
85 0 0 0 0 7 0
86 0 0 0 0 0 6
87 0 0 0 0 0 5
88 0 0 0 0 0 6
89 0 0 0 0 7 0
90 0 0 0 0 0 10
91 0 0 0 0 0 10
92 0 0 0 0 0 10
93 0 0 0 0 1 0
94 0 0 0 0 0 9
95 0 0 0 0 0 3
96 0 0 0 0 0 10
97 0 0 0 0 3 0
98 0 0 0 0 0 7
99 0 0 0 0 0 2
100 0 0 0 0 0 8
101 0 0 0 0 2 0
102 0 0 0 0 0 5
103 0 0 0 0 0 1
104 0 0 0 0 0 6
105 0 0 0 0 4 0
106 0 0 0 0 0 9
107 0 0 0 0 0 10
108 0 0 0 0 0 8
109 0 0 0 0 5 0
110 0 0 0 0 0 6
111 0 0 0 0 0 4
112 0 0 0 0 0 1
113 0 0 0 0 10 0
114 0 0 0 0 0 9
115 0 0 0 0 0 5
116 0 0 0 0 0 8
117 0 0 0 0 6 0
118 0 0 0 0 0 6
119 0 0 0 0 0 8
120 0 0 0 0 0 5
121 0 0 0 0 5 0
122 0 0 0 0 0 7
123 0 0 0 0 0 9
124 0 0 0 0 0 6
125 0 0 0 0 2 0
126 0 0 0 0 0 3
127 0 0 0 0 0 2
128 0 0 0 0 0 4
129 0 0 0 0 7 0
130 0 0 0 0 0 6
131 0 0 0 0 0 9
132 0 0 0 0 0 2
133 0 0 0 0 10 0
134 0 0 0 0 0 5
135 0 0 0 0 0 6
136 0 0 0 0 0 6
137 0 0 0 0 7 0
138 0 0 0 0 0 7
139 0 0 0 0 0 7
140 0 0 0 0 0 8
141 0 0 0 0 9 0
142 0 0 0 0 0 7
143 0 0 0 0 0 2
144 0 0 0 0 0 6
145 0 0 0 0 10 0
146 0 0 0 0 0 3
147 0 0 0 0 0 10
148 0 0 0 0 0 5
